minizinc/sudoku_problems2/sudoku_p23.dzn
%
% sudoku_p23.dzn
% See http://www.hakank.org/minizinc/sudoku_gcc.mzn
% 
% This problem is problem 23 from
% Gecode's sudoku.cpp
% http://www.gecode.org/gecode-doc-latest/sudoku_8cpp-source.html
% 
x = array2d(1..n, 1..n, [   
% 23
  _,  _,  _,  _, 11,  1,  2, 24,  3,  _,  _, 13,  _,  _, 15,  _,  _, 20, 25, 21,  _, 14,  4,  _,  7,
  1, 22,  _,  _, 16, 21,  _,  _, 17,  _,  _, 20,  _, 10,  _,  _,  _,  _,  _,  3,  9,  _, 25,  _,  _,
  _,  8,  _,  3,  _,  4,  _,  _,  _,  _,  _,  7,  _,  _,  6,  _, 15,  _,  _,  _,  _,  _, 12, 20,  _,
 25,  _, 24,  _,  _,  _,  7,  5,  8,  _,  2,  _,  _, 22, 12,  _,  _,  _,  _,  _,  1, 21,  _, 10,  _,
  _,  _,  _, 17, 15, 20,  6,  _, 10,  _,  _,  8,  _,  _,  _,  9, 11,  _,  _,  _,  2,  _,  _,  _, 19,
  9,  1,  _, 20, 19, 14,  _,  _, 21,  _,  5, 24,  _,  _, 16, 13,  _,  _,  _,  _,  _,  4,  _,  _,  _,
  _, 18,  _,  _,  3,  _,  _, 13,  _,  2,  _,  _,  _,  _,  _, 12,  4, 22, 21, 10, 20,  _,  _, 23,  _,
  _,  4,  _,  _,  6, 18, 10,  _, 25,  7,  _,  _,  _,  _,  _, 11,  9,  _,  _,  _,  _,  _,  _,  3,  _,
 22,  _, 15,  _,  _,  _,  4,  _, 19,  _,  _,  _,  8,  _,  _,  _,  _, 23,  _, 17,  _,  1, 16,  7,  _,
  _,  _,  5, 25,  _, 23,  _,  _,  _,  _,  _, 12,  _,  7,  3,  1,  _, 18,  _, 14,  _,  9, 10,  _,  _,
  _,  _,  _,  _,  _, 16, 24,  _, 20, 13, 21,  _,  _,  _,  _,  _,  _, 11, 10,  _,  _,  _,  _,  _,  _,
  _,  3, 10,  _,  _, 15,  _,  _,  _,  9,  _,  _, 20,  _, 14, 18,  5,  _,  7,  _,  _,  6,  _, 13, 23,
  _, 16,  _,  5,  4,  _, 21,  _,  _,  _,  _,  _, 25, 17,  _,  _,  3, 15,  6,  _,  _,  _,  _,  2,  _,
  _,  _,  _,  _, 25,  _,  _,  _,  _,  _, 16,  _,  _,  2, 13,  _, 24, 17,  _,  1, 11,  _,  _,  _, 12,
  6,  _, 14, 22,  _,  7, 23,  _,  _,  _,  _,  3,  _, 11,  4,  _,  _, 13, 12,  _,  _, 20,  1, 25,  _,
 11,  _,  9,  _,  _,  _,  _,  _, 18,  _,  _,  5, 23,  _,  _,  _,  7, 24, 16, 20,  _,  _,  _,  4,  6,
 24, 15,  _, 16, 13,  6, 17, 25,  _,  _, 19, 22,  _,  _, 11, 10,  8,  _, 18,  _, 12,  _,  _,  _,  _,
  8,  _, 21,  7,  _,  _,  _,  _,  _,  _,  _,  _,  _,  _,  _, 25,  _,  3, 22,  5,  _,  _,  _,  9,  2,
  _, 14, 22,  _,  _,  _,  _,  _,  4,  5, 18, 15,  7,  _,  _,  _,  _,  2,  _, 12, 19,  8, 13, 21,  _,
  _,  6,  _,  4,  _,  8,  _,  _, 23, 10,  _,  2,  _,  _,  _,  _,  _,  _,  9,  _,  _,  _,  _, 16, 18,
  2,  _,  _, 10,  1, 13, 12, 23,  _,  _,  3, 16,  _, 15,  5,  _, 21,  _,  _, 18,  _,  _, 24,  6, 17,
  _,  _, 11, 18, 24,  _,  _,  1,  _, 17,  _, 21,  _,  _,  _, 16,  _,  _,  _,  _,  _,  _,  _,  _,  _,
 12,  _, 25,  _,  _,  _,  _,  _, 22,  8,  _,  9, 24,  _,  _,  5, 10,  _,  _, 23,  _, 19, 20,  _, 13,
 17,  _,  _,  _, 23,  _,  _,  _, 15, 24, 10,  4,  _,  _,  7,  3,  _,  _,  _,  _,  5,  _,  _, 12, 22,
  _, 13,  4,  _,  _,  3,  _,  _,  _,  6, 11, 14,  _,  _, 23,  _,  2, 19, 17,  8,  _,  _, 21,  _,  _
]);

n = 25;


